output/chemical reaction_ilp.mps
NAME chemical reaction_srl_ilp
* Max problem is converted into Min one
ROWS
 N  OBJ
 L  constraint1_1990
 L  constraint1_1991
 L  constraint1_1999
 L  constraint1_1992
 L  constraint1_7115
 L  constraint1_7110
 L  constraint1_7111
 L  constraint1_7112
 L  constraint1_7116
 L  constraint1_7114
 L  constraint1_7113
 L  constraint2_6220
 L  constraint2_6221
 L  constraint2_6222
 L  constraint2_6223
 L  constraint2_1990
 L  constraint2_1991
 L  constraint2_1992
 L  constraint2_1993
 L  constraint2_2140
 L  constraint2_2141
 L  constraint2_2142
 L  constraint2_2143
 L  constraint2_7110
 L  constraint2_7111
 L  constraint2_7112
 L  constraint2_7113
COLUMNS
    MARKER    'MARKER'                 'INTORG'
    Z_199_0_0  OBJ       -4.4253566600871612e-03
    Z_199_0_0  constraint1_1990  1
    Z_199_0_0  constraint2_1990  1
    Z_199_0_1  OBJ       -3.9647955875476417e-03
    Z_199_0_1  constraint1_1990  1
    Z_199_0_1  constraint2_1991  1
    Z_199_0_2  OBJ       -6.3571517858236323e-02
    Z_199_0_2  constraint1_1990  1
    Z_199_0_2  constraint2_1992  1
    Z_199_0_3  OBJ       -1.6980539414656718e-02
    Z_199_0_3  constraint1_1990  1
    Z_199_0_3  constraint2_1993  1
    Z_199_0_4  OBJ       -8.1105779047947224e-01
    Z_199_0_4  constraint1_1990  1
    Z_199_1_0  OBJ       -4.4253566600871612e-03
    Z_199_1_0  constraint1_1991  1
    Z_199_1_0  constraint2_1990  1
    Z_199_1_1  OBJ       -3.9647955875476417e-03
    Z_199_1_1  constraint1_1991  1
    Z_199_1_1  constraint2_1991  1
    Z_199_1_2  OBJ       -6.3571517858236323e-02
    Z_199_1_2  constraint1_1991  1
    Z_199_1_2  constraint2_1992  1
    Z_199_1_3  OBJ       -1.6980539414656718e-02
    Z_199_1_3  constraint1_1991  1
    Z_199_1_3  constraint2_1993  1
    Z_199_1_4  OBJ       -8.1105779047947224e-01
    Z_199_1_4  constraint1_1991  1
    Z_199_9_0  OBJ       -1.2349843167450481e-04
    Z_199_9_0  constraint1_1999  1
    Z_199_9_0  constraint2_1990  1
    Z_199_9_1  OBJ       -1.5000544952477751e-03
    Z_199_9_1  constraint1_1999  1
    Z_199_9_1  constraint2_1991  1
    Z_199_9_2  OBJ       -8.5863864463936090e-01
    Z_199_9_2  constraint1_1999  1
    Z_199_9_2  constraint2_1992  1
    Z_199_9_3  OBJ       -8.4903554230569421e-04
    Z_199_9_3  constraint1_1999  1
    Z_199_9_3  constraint2_1993  1
    Z_199_9_4  OBJ       -3.8888766891410992e-02
    Z_199_9_4  constraint1_1999  1
    Z_199_2_0  OBJ       -4.4172320562445411e-02
    Z_199_2_0  constraint1_1992  1
    Z_199_2_0  constraint2_1990  1
    Z_199_2_1  OBJ       -5.9301127879447489e-02
    Z_199_2_1  constraint1_1992  1
    Z_199_2_1  constraint2_1991  1
    Z_199_2_2  OBJ       -4.2075864713257694e-03
    Z_199_2_2  constraint1_1992  1
    Z_199_2_2  constraint2_1992  1
    Z_199_2_3  OBJ       -1.0540208340366911e-01
    Z_199_2_3  constraint1_1992  1
    Z_199_2_3  constraint2_1993  1
    Z_199_2_4  OBJ       -6.8691688168311227e-01
    Z_199_2_4  constraint1_1992  1
    Z_711_5_0  OBJ       -1.3868695999367598e-03
    Z_711_5_0  constraint1_7115  1
    Z_711_5_0  constraint2_7110  1
    Z_711_5_1  OBJ       -2.2430939969238436e-03
    Z_711_5_1  constraint1_7115  1
    Z_711_5_1  constraint2_7111  1
    Z_711_5_2  OBJ       -4.7893754844809716e-01
    Z_711_5_2  constraint1_7115  1
    Z_711_5_2  constraint2_7112  1
    Z_711_5_3  OBJ       -4.4268617813293205e-03
    Z_711_5_3  constraint1_7115  1
    Z_711_5_3  constraint2_7113  1
    Z_711_5_4  OBJ       -4.1300562617371278e-01
    Z_711_5_4  constraint1_7115  1
    Z_711_0_0  OBJ       -3.8637266033692053e-03
    Z_711_0_0  constraint1_7110  1
    Z_711_0_0  constraint2_7110  1
    Z_711_0_1  OBJ       -1.3120385826222705e-03
    Z_711_0_1  constraint1_7110  1
    Z_711_0_1  constraint2_7111  1
    Z_711_0_2  OBJ       -7.6459341842518265e-03
    Z_711_0_2  constraint1_7110  1
    Z_711_0_2  constraint2_7112  1
    Z_711_0_3  OBJ       -4.5701253375755466e-02
    Z_711_0_3  constraint1_7110  1
    Z_711_0_3  constraint2_7113  1
    Z_711_0_4  OBJ       -8.4147704725400119e-01
    Z_711_0_4  constraint1_7110  1
    Z_711_1_0  OBJ       -3.8637266033692053e-03
    Z_711_1_0  constraint1_7111  1
    Z_711_1_0  constraint2_7110  1
    Z_711_1_1  OBJ       -1.3120385826222705e-03
    Z_711_1_1  constraint1_7111  1
    Z_711_1_1  constraint2_7111  1
    Z_711_1_2  OBJ       -7.6459341842518265e-03
    Z_711_1_2  constraint1_7111  1
    Z_711_1_2  constraint2_7112  1
    Z_711_1_3  OBJ       -4.5701253375755466e-02
    Z_711_1_3  constraint1_7111  1
    Z_711_1_3  constraint2_7113  1
    Z_711_1_4  OBJ       -8.4147704725400119e-01
    Z_711_1_4  constraint1_7111  1
    Z_711_2_0  OBJ       -3.3210362873364041e-03
    Z_711_2_0  constraint1_7112  1
    Z_711_2_0  constraint2_7110  1
    Z_711_2_1  OBJ       -8.4834840391223836e-03
    Z_711_2_1  constraint1_7112  1
    Z_711_2_1  constraint2_7111  1
    Z_711_2_2  OBJ       -1.0933742826952478e-02
    Z_711_2_2  constraint1_7112  1
    Z_711_2_2  constraint2_7112  1
    Z_711_2_3  OBJ       -9.4785653364009473e-02
    Z_711_2_3  constraint1_7112  1
    Z_711_2_3  constraint2_7113  1
    Z_711_2_4  OBJ       -7.8247608348257935e-01
    Z_711_2_4  constraint1_7112  1
    Z_711_6_0  OBJ       -1.5157945665402918e-02
    Z_711_6_0  constraint1_7116  1
    Z_711_6_0  constraint2_7110  1
    Z_711_6_1  OBJ       -9.2013017566914768e-02
    Z_711_6_1  constraint1_7116  1
    Z_711_6_1  constraint2_7111  1
    Z_711_6_2  OBJ       -2.6006849401403204e-01
    Z_711_6_2  constraint1_7116  1
    Z_711_6_2  constraint2_7112  1
    Z_711_6_3  OBJ       -2.0625157143642846e-02
    Z_711_6_3  constraint1_7116  1
    Z_711_6_3  constraint2_7113  1
    Z_711_6_4  OBJ       -5.1213538561000738e-01
    Z_711_6_4  constraint1_7116  1
    Z_711_4_0  OBJ       -3.3210362873364041e-03
    Z_711_4_0  constraint1_7114  1
    Z_711_4_0  constraint2_7110  1
    Z_711_4_1  OBJ       -8.4834840391223836e-03
    Z_711_4_1  constraint1_7114  1
    Z_711_4_1  constraint2_7111  1
    Z_711_4_2  OBJ       -1.0933742826952478e-02
    Z_711_4_2  constraint1_7114  1
    Z_711_4_2  constraint2_7112  1
    Z_711_4_3  OBJ       -9.4785653364009473e-02
    Z_711_4_3  constraint1_7114  1
    Z_711_4_3  constraint2_7113  1
    Z_711_4_4  OBJ       -7.8247608348257935e-01
    Z_711_4_4  constraint1_7114  1
    Z_711_3_0  OBJ       -3.3210362873364041e-03
    Z_711_3_0  constraint1_7113  1
    Z_711_3_0  constraint2_7110  1
    Z_711_3_1  OBJ       -8.4834840391223836e-03
    Z_711_3_1  constraint1_7113  1
    Z_711_3_1  constraint2_7111  1
    Z_711_3_2  OBJ       -1.0933742826952478e-02
    Z_711_3_2  constraint1_7113  1
    Z_711_3_2  constraint2_7112  1
    Z_711_3_3  OBJ       -9.4785653364009473e-02
    Z_711_3_3  constraint1_7113  1
    Z_711_3_3  constraint2_7113  1
    Z_711_3_4  OBJ       -7.8247608348257935e-01
    Z_711_3_4  constraint1_7113  1
    MARKER    'MARKER'                 'INTEND'
RHS
    RHS1      constraint1_1990  1
    RHS1      constraint1_1991  1
    RHS1      constraint1_1999  1
    RHS1      constraint1_1992  1
    RHS1      constraint1_7115  1
    RHS1      constraint1_7110  1
    RHS1      constraint1_7111  1
    RHS1      constraint1_7112  1
    RHS1      constraint1_7116  1
    RHS1      constraint1_7114  1
    RHS1      constraint1_7113  1
    RHS1      constraint2_6220  1
    RHS1      constraint2_6221  1
    RHS1      constraint2_6222  1
    RHS1      constraint2_6223  1
    RHS1      constraint2_1990  1
    RHS1      constraint2_1991  1
    RHS1      constraint2_1992  1
    RHS1      constraint2_1993  1
    RHS1      constraint2_2140  1
    RHS1      constraint2_2141  1
    RHS1      constraint2_2142  1
    RHS1      constraint2_2143  1
    RHS1      constraint2_7110  1
    RHS1      constraint2_7111  1
    RHS1      constraint2_7112  1
    RHS1      constraint2_7113  1
BOUNDS
 UP BND1      Z_199_0_0  1
 UP BND1      Z_199_0_1  1
 UP BND1      Z_199_0_2  1
 UP BND1      Z_199_0_3  1
 UP BND1      Z_199_0_4  1
 UP BND1      Z_199_1_0  1
 UP BND1      Z_199_1_1  1
 UP BND1      Z_199_1_2  1
 UP BND1      Z_199_1_3  1
 UP BND1      Z_199_1_4  1
 UP BND1      Z_199_9_0  1
 UP BND1      Z_199_9_1  1
 UP BND1      Z_199_9_2  1
 UP BND1      Z_199_9_3  1
 UP BND1      Z_199_9_4  1
 UP BND1      Z_199_2_0  1
 UP BND1      Z_199_2_1  1
 UP BND1      Z_199_2_2  1
 UP BND1      Z_199_2_3  1
 UP BND1      Z_199_2_4  1
 UP BND1      Z_711_5_0  1
 UP BND1      Z_711_5_1  1
 UP BND1      Z_711_5_2  1
 UP BND1      Z_711_5_3  1
 UP BND1      Z_711_5_4  1
 UP BND1      Z_711_0_0  1
 UP BND1      Z_711_0_1  1
 UP BND1      Z_711_0_2  1
 UP BND1      Z_711_0_3  1
 UP BND1      Z_711_0_4  1
 UP BND1      Z_711_1_0  1
 UP BND1      Z_711_1_1  1
 UP BND1      Z_711_1_2  1
 UP BND1      Z_711_1_3  1
 UP BND1      Z_711_1_4  1
 UP BND1      Z_711_2_0  1
 UP BND1      Z_711_2_1  1
 UP BND1      Z_711_2_2  1
 UP BND1      Z_711_2_3  1
 UP BND1      Z_711_2_4  1
 UP BND1      Z_711_6_0  1
 UP BND1      Z_711_6_1  1
 UP BND1      Z_711_6_2  1
 UP BND1      Z_711_6_3  1
 UP BND1      Z_711_6_4  1
 UP BND1      Z_711_4_0  1
 UP BND1      Z_711_4_1  1
 UP BND1      Z_711_4_2  1
 UP BND1      Z_711_4_3  1
 UP BND1      Z_711_4_4  1
 UP BND1      Z_711_3_0  1
 UP BND1      Z_711_3_1  1
 UP BND1      Z_711_3_2  1
 UP BND1      Z_711_3_3  1
 UP BND1      Z_711_3_4  1
ENDATA
