output/chemical reaction_ilp.sol
# Solution for model chemical reaction_srl_ilp
# Objective value = 8.1891263862952623e+00
Z_199_0_0 0
Z_199_0_1 0
Z_199_0_2 0
Z_199_0_3 0
Z_199_0_4 1
Z_199_1_0 0
Z_199_1_1 0
Z_199_1_2 0
Z_199_1_3 0
Z_199_1_4 1
Z_199_9_0 0
Z_199_9_1 0
Z_199_9_2 1
Z_199_9_3 0
Z_199_9_4 0
Z_199_2_0 0
Z_199_2_1 0
Z_199_2_2 0
Z_199_2_3 0
Z_199_2_4 1
Z_711_5_0 0
Z_711_5_1 0
Z_711_5_2 1
Z_711_5_3 0
Z_711_5_4 0
Z_711_0_0 0
Z_711_0_1 0
Z_711_0_2 0
Z_711_0_3 0
Z_711_0_4 1
Z_711_1_0 0
Z_711_1_1 0
Z_711_1_2 0
Z_711_1_3 0
Z_711_1_4 1
Z_711_2_0 0
Z_711_2_1 0
Z_711_2_2 0
Z_711_2_3 0
Z_711_2_4 1
Z_711_6_0 0
Z_711_6_1 0
Z_711_6_2 0
Z_711_6_3 0
Z_711_6_4 1
Z_711_4_0 0
Z_711_4_1 0
Z_711_4_2 0
Z_711_4_3 0
Z_711_4_4 1
Z_711_3_0 0
Z_711_3_1 0
Z_711_3_2 0
Z_711_3_3 0
Z_711_3_4 1
